job_count = 28 ;
duration = [|7, 4|14, 4|14, 4|7, 6|2, 6|13, 5|3, 4|10, 7|8, 1|15, 6|19, 5|7, 3|18, 9|8, 6|8, 8|14, 3|11, 9|8, 5|8, 4|19, 4|8, 4|2, 7|6, 8|7, 5|17, 9|17, 3|9, 9|17, 1|] ;
machine_count = 2 ;
cost = [|17, 25|12, 37|11, 33|19, 26|10, 22|10, 32|14, 24|10, 28|15, 24|13, 29|17, 38|18, 34|18, 33|16, 38|10, 32|19, 28|13, 36|11, 36|15, 26|10, 27|12, 34|15, 38|14, 35|18, 39|14, 31|13, 33|12, 37|14, 36|] ;
deadline = [70, 70, 70, 70, 70, 70, 70, 70, 70, 70, 70, 70, 70, 70, 70, 70, 70, 70, 70, 70, 70, 70, 70, 70, 70, 70, 70, 70] ;
release = [0, 0, 0, 0, 0, 0, 0, 0, 0, 0, 0, 0, 0, 0, 0, 0, 0, 0, 0, 0, 0, 0, 0, 0, 0, 0, 0, 0] ;
resource = [|3, 3|8, 8|9, 9|8, 8|4, 4|2, 2|3, 3|7, 7|4, 4|5, 5|4, 4|7, 7|2, 2|1, 1|2, 2|5, 5|4, 4|2, 2|7, 7|8, 8|3, 3|8, 8|7, 7|7, 7|4, 4|4, 4|1, 1|7, 7|] ;
capacities = [10, 10] ;
